c FILE: miles500.col
c Translated from Stanford GraphBase File: miles500.gb
c Stanford GraphBase ID: miles(128,0,0,0,500,127,0)
p edge 128 2340
e 1 120
e 1 110
e 1 109
e 1 108
e 1 103
e 1 102
e 1 98
e 1 90
e 1 80
e 1 79
e 1 72
e 1 67
e 1 57
e 1 55
e 1 44
e 1 31
e 2 127
e 2 126
e 2 123
e 2 116
e 2 115
e 2 113
e 2 111
e 2 107
e 2 96
e 2 94
e 2 93
e 2 92
e 2 84
e 2 82
e 2 75
e 2 69
e 2 68
e 2 66
e 2 61
e 2 58
e 2 53
e 2 52
e 2 45
e 2 41
e 2 38
e 2 30
e 2 28
e 2 25
e 2 24
e 2 20
e 2 10
e 3 87
e 3 81
e 3 48
e 3 9
e 3 5
e 4 124
e 4 104
e 4 77
e 4 54
e 4 49
e 4 40
e 4 29
e 4 26
e 4 21
e 4 18
e 4 15
e 4 9
e 5 87
e 5 48
e 5 32
e 5 3
e 6 127
e 6 122
e 6 111
e 6 106
e 6 96
e 6 95
e 6 89
e 6 84
e 6 71
e 6 70
e 6 60
e 6 56
e 6 23
e 6 13
e 7 128
e 7 126
e 7 123
e 7 115
e 7 101
e 7 99
e 7 92
e 7 91
e 7 88
e 7 83
e 7 73
e 7 68
e 7 66
e 7 62
e 7 52
e 7 43
e 7 28
e 7 19
e 7 14
e 7 8
e 8 128
e 8 126
e 8 125
e 8 123
e 8 115
e 8 114
e 8 110
e 8 101
e 8 100
e 8 99
e 8 92
e 8 91
e 8 88
e 8 78
e 8 76
e 8 74
e 8 73
e 8 68
e 8 66
e 8 62
e 8 52
e 8 43
e 8 39
e 8 28
e 8 27
e 8 19
e 8 14
e 8 7
e 9 124
e 9 104
e 9 49
e 9 40
e 9 29
e 9 26
e 9 21
e 9 18
e 9 4
e 9 3
e 10 127
e 10 126
e 10 123
e 10 118
e 10 116
e 10 115
e 10 113
e 10 111
e 10 107
e 10 96
e 10 94
e 10 93
e 10 92
e 10 86
e 10 84
e 10 82
e 10 75
e 10 69
e 10 66
e 10 61
e 10 58
e 10 53
e 10 52
e 10 46
e 10 45
e 10 41
e 10 38
e 10 36
e 10 30
e 10 28
e 10 25
e 10 24
e 10 20
e 10 2
e 11 85
e 11 81
e 11 63
e 11 59
e 11 50
e 11 42
e 11 17
e 12 102
e 12 80
e 12 47
e 12 37
e 12 33
e 12 32
e 12 31
e 12 16
e 13 127
e 13 122
e 13 111
e 13 106
e 13 96
e 13 95
e 13 93
e 13 89
e 13 84
e 13 75
e 13 71
e 13 70
e 13 60
e 13 56
e 13 23
e 13 6
e 14 101
e 14 100
e 14 99
e 14 91
e 14 73
e 14 62
e 14 52
e 14 43
e 14 28
e 14 19
e 14 8
e 14 7
e 15 124
e 15 77
e 15 54
e 15 40
e 15 29
e 15 26
e 15 21
e 15 18
e 15 4
e 16 117
e 16 102
e 16 87
e 16 74
e 16 35
e 16 33
e 16 32
e 16 12
e 17 85
e 17 81
e 17 63
e 17 59
e 17 50
e 17 42
e 17 11
e 18 124
e 18 104
e 18 77
e 18 49
e 18 40
e 18 26
e 18 21
e 18 15
e 18 9
e 18 4
e 19 128
e 19 125
e 19 114
e 19 105
e 19 101
e 19 100
e 19 97
e 19 91
e 19 88
e 19 78
e 19 74
e 19 73
e 19 65
e 19 62
e 19 43
e 19 39
e 19 14
e 19 8
e 19 7
e 20 127
e 20 126
e 20 123
e 20 118
e 20 116
e 20 115
e 20 113
e 20 111
e 20 94
e 20 93
e 20 92
e 20 86
e 20 83
e 20 82
e 20 75
e 20 69
e 20 68
e 20 66
e 20 61
e 20 58
e 20 53
e 20 52
e 20 46
e 20 45
e 20 41
e 20 38
e 20 36
e 20 30
e 20 28
e 20 25
e 20 24
e 20 22
e 20 10
e 20 2
e 21 124
e 21 104
e 21 77
e 21 49
e 21 40
e 21 29
e 21 26
e 21 18
e 21 15
e 21 9
e 21 4
e 22 118
e 22 116
e 22 94
e 22 86
e 22 83
e 22 82
e 22 61
e 22 58
e 22 53
e 22 46
e 22 38
e 22 36
e 22 30
e 22 25
e 22 24
e 22 20
e 23 122
e 23 106
e 23 96
e 23 95
e 23 89
e 23 71
e 23 70
e 23 67
e 23 64
e 23 60
e 23 56
e 23 13
e 23 6
e 24 127
e 24 126
e 24 123
e 24 118
e 24 116
e 24 115
e 24 113
e 24 111
e 24 94
e 24 93
e 24 86
e 24 84
e 24 83
e 24 82
e 24 75
e 24 69
e 24 66
e 24 61
e 24 58
e 24 53
e 24 52
e 24 46
e 24 45
e 24 41
e 24 38
e 24 36
e 24 30
e 24 25
e 24 22
e 24 20
e 24 10
e 24 2
e 25 126
e 25 123
e 25 118
e 25 116
e 25 115
e 25 113
e 25 94
e 25 93
e 25 86
e 25 83
e 25 82
e 25 69
e 25 66
e 25 61
e 25 58
e 25 53
e 25 52
e 25 46
e 25 45
e 25 41
e 25 38
e 25 36
e 25 30
e 25 24
e 25 22
e 25 20
e 25 10
e 25 2
e 26 124
e 26 104
e 26 77
e 26 54
e 26 49
e 26 40
e 26 29
e 26 21
e 26 18
e 26 15
e 26 9
e 26 4
e 27 128
e 27 122
e 27 114
e 27 110
e 27 109
e 27 108
e 27 102
e 27 100
e 27 92
e 27 91
e 27 90
e 27 88
e 27 80
e 27 79
e 27 76
e 27 73
e 27 68
e 27 64
e 27 62
e 27 52
e 27 43
e 27 39
e 27 28
e 27 8
e 28 128
e 28 126
e 28 123
e 28 115
e 28 113
e 28 107
e 28 100
e 28 99
e 28 94
e 28 92
e 28 91
e 28 88
e 28 83
e 28 76
e 28 75
e 28 73
e 28 69
e 28 68
e 28 66
e 28 62
e 28 58
e 28 53
e 28 52
e 28 45
e 28 43
e 28 30
e 28 27
e 28 20
e 28 14
e 28 10
e 28 8
e 28 7
e 28 2
e 29 124
e 29 112
e 29 77
e 29 54
e 29 40
e 29 26
e 29 21
e 29 15
e 29 9
e 29 4
e 30 127
e 30 126
e 30 123
e 30 118
e 30 116
e 30 115
e 30 113
e 30 111
e 30 94
e 30 93
e 30 92
e 30 86
e 30 84
e 30 83
e 30 82
e 30 75
e 30 69
e 30 66
e 30 61
e 30 58
e 30 53
e 30 52
e 30 46
e 30 45
e 30 41
e 30 38
e 30 36
e 30 28
e 30 25
e 30 24
e 30 22
e 30 20
e 30 10
e 30 2
e 31 120
e 31 119
e 31 109
e 31 108
e 31 103
e 31 102
e 31 98
e 31 90
e 31 80
e 31 72
e 31 57
e 31 55
e 31 47
e 31 44
e 31 12
e 31 1
e 32 87
e 32 48
e 32 47
e 32 37
e 32 33
e 32 16
e 32 12
e 32 5
e 33 117
e 33 102
e 33 90
e 33 87
e 33 80
e 33 74
e 33 37
e 33 35
e 33 32
e 33 16
e 33 12
e 34 121
e 34 65
e 34 51
e 35 87
e 35 33
e 35 16
e 36 118
e 36 116
e 36 113
e 36 94
e 36 86
e 36 82
e 36 69
e 36 61
e 36 58
e 36 53
e 36 46
e 36 41
e 36 38
e 36 30
e 36 25
e 36 24
e 36 22
e 36 20
e 36 10
e 37 47
e 37 33
e 37 32
e 37 12
e 38 127
e 38 126
e 38 123
e 38 118
e 38 116
e 38 115
e 38 113
e 38 111
e 38 94
e 38 93
e 38 86
e 38 83
e 38 82
e 38 75
e 38 69
e 38 66
e 38 61
e 38 58
e 38 53
e 38 46
e 38 45
e 38 41
e 38 36
e 38 30
e 38 25
e 38 24
e 38 22
e 38 20
e 38 10
e 38 2
e 39 128
e 39 125
e 39 117
e 39 114
e 39 110
e 39 105
e 39 101
e 39 100
e 39 97
e 39 91
e 39 90
e 39 79
e 39 78
e 39 74
e 39 73
e 39 65
e 39 62
e 39 43
e 39 27
e 39 19
e 39 8
e 40 124
e 40 104
e 40 77
e 40 54
e 40 49
e 40 29
e 40 26
e 40 21
e 40 18
e 40 15
e 40 9
e 40 4
e 41 127
e 41 126
e 41 123
e 41 118
e 41 116
e 41 115
e 41 113
e 41 111
e 41 96
e 41 94
e 41 93
e 41 86
e 41 84
e 41 82
e 41 75
e 41 69
e 41 66
e 41 61
e 41 58
e 41 53
e 41 46
e 41 45
e 41 38
e 41 36
e 41 30
e 41 25
e 41 24
e 41 20
e 41 10
e 41 2
e 42 85
e 42 81
e 42 63
e 42 59
e 42 50
e 42 17
e 42 11
e 43 128
e 43 125
e 43 117
e 43 115
e 43 114
e 43 110
e 43 105
e 43 101
e 43 100
e 43 99
e 43 92
e 43 91
e 43 88
e 43 79
e 43 78
e 43 76
e 43 74
e 43 73
e 43 68
e 43 66
e 43 62
e 43 52
e 43 39
e 43 28
e 43 27
e 43 19
e 43 14
e 43 8
e 43 7
e 44 120
e 44 119
e 44 109
e 44 103
e 44 98
e 44 80
e 44 72
e 44 67
e 44 57
e 44 55
e 44 31
e 44 1
e 45 127
e 45 126
e 45 123
e 45 116
e 45 115
e 45 113
e 45 111
e 45 107
e 45 99
e 45 94
e 45 93
e 45 92
e 45 91
e 45 88
e 45 83
e 45 82
e 45 76
e 45 75
e 45 69
e 45 68
e 45 66
e 45 62
e 45 61
e 45 58
e 45 53
e 45 52
e 45 46
e 45 41
e 45 38
e 45 30
e 45 28
e 45 25
e 45 24
e 45 20
e 45 10
e 45 2
e 46 126
e 46 123
e 46 118
e 46 116
e 46 115
e 46 113
e 46 94
e 46 86
e 46 83
e 46 82
e 46 69
e 46 66
e 46 61
e 46 58
e 46 53
e 46 52
e 46 45
e 46 41
e 46 38
e 46 36
e 46 30
e 46 25
e 46 24
e 46 22
e 46 20
e 46 10
e 47 120
e 47 112
e 47 37
e 47 32
e 47 31
e 47 12
e 48 87
e 48 32
e 48 5
e 48 3
e 49 124
e 49 104
e 49 81
e 49 59
e 49 40
e 49 26
e 49 21
e 49 18
e 49 9
e 49 4
e 50 85
e 50 81
e 50 63
e 50 59
e 50 42
e 50 17
e 50 11
e 51 125
e 51 121
e 51 105
e 51 97
e 51 78
e 51 65
e 51 34
e 52 128
e 52 126
e 52 123
e 52 116
e 52 115
e 52 113
e 52 107
e 52 100
e 52 99
e 52 94
e 52 92
e 52 91
e 52 88
e 52 83
e 52 76
e 52 75
e 52 69
e 52 68
e 52 66
e 52 62
e 52 58
e 52 53
e 52 46
e 52 45
e 52 43
e 52 30
e 52 28
e 52 27
e 52 25
e 52 24
e 52 20
e 52 14
e 52 10
e 52 8
e 52 7
e 52 2
e 53 126
e 53 123
e 53 118
e 53 116
e 53 115
e 53 113
e 53 111
e 53 94
e 53 93
e 53 86
e 53 83
e 53 82
e 53 75
e 53 69
e 53 66
e 53 61
e 53 58
e 53 52
e 53 46
e 53 45
e 53 41
e 53 38
e 53 36
e 53 30
e 53 28
e 53 25
e 53 24
e 53 22
e 53 20
e 53 10
e 53 2
e 54 112
e 54 77
e 54 40
e 54 29
e 54 26
e 54 15
e 54 4
e 55 122
e 55 120
e 55 119
e 55 110
e 55 109
e 55 108
e 55 103
e 55 98
e 55 80
e 55 72
e 55 70
e 55 67
e 55 64
e 55 57
e 55 44
e 55 31
e 55 1
e 56 106
e 56 95
e 56 89
e 56 71
e 56 60
e 56 23
e 56 13
e 56 6
e 57 122
e 57 120
e 57 119
e 57 109
e 57 108
e 57 103
e 57 98
e 57 72
e 57 70
e 57 67
e 57 64
e 57 55
e 57 44
e 57 31
e 57 1
e 58 126
e 58 123
e 58 118
e 58 116
e 58 115
e 58 113
e 58 94
e 58 93
e 58 86
e 58 83
e 58 82
e 58 69
e 58 66
e 58 61
e 58 53
e 58 52
e 58 46
e 58 45
e 58 41
e 58 38
e 58 36
e 58 30
e 58 28
e 58 25
e 58 24
e 58 22
e 58 20
e 58 10
e 58 2
e 59 104
e 59 85
e 59 81
e 59 63
e 59 50
e 59 49
e 59 42
e 59 17
e 59 11
e 60 106
e 60 96
e 60 95
e 60 89
e 60 84
e 60 71
e 60 70
e 60 56
e 60 23
e 60 13
e 60 6
e 61 126
e 61 118
e 61 116
e 61 113
e 61 94
e 61 93
e 61 86
e 61 83
e 61 82
e 61 69
e 61 58
e 61 53
e 61 46
e 61 45
e 61 41
e 61 38
e 61 36
e 61 30
e 61 25
e 61 24
e 61 22
e 61 20
e 61 10
e 61 2
e 62 128
e 62 126
e 62 123
e 62 115
e 62 114
e 62 107
e 62 101
e 62 100
e 62 99
e 62 92
e 62 91
e 62 88
e 62 83
e 62 76
e 62 73
e 62 69
e 62 68
e 62 66
e 62 52
e 62 45
e 62 43
e 62 39
e 62 28
e 62 27
e 62 19
e 62 14
e 62 8
e 62 7
e 63 85
e 63 81
e 63 59
e 63 50
e 63 42
e 63 17
e 63 11
e 64 128
e 64 122
e 64 110
e 64 108
e 64 103
e 64 89
e 64 88
e 64 76
e 64 71
e 64 70
e 64 67
e 64 57
e 64 55
e 64 27
e 64 23
e 65 125
e 65 121
e 65 117
e 65 114
e 65 105
e 65 101
e 65 97
e 65 78
e 65 74
e 65 51
e 65 39
e 65 34
e 65 19
e 66 126
e 66 123
e 66 116
e 66 115
e 66 113
e 66 107
e 66 99
e 66 94
e 66 93
e 66 92
e 66 91
e 66 88
e 66 83
e 66 82
e 66 76
e 66 75
e 66 69
e 66 68
e 66 62
e 66 58
e 66 53
e 66 52
e 66 46
e 66 45
e 66 43
e 66 41
e 66 38
e 66 30
e 66 28
e 66 25
e 66 24
e 66 20
e 66 10
e 66 8
e 66 7
e 66 2
e 67 122
e 67 108
e 67 103
e 67 98
e 67 70
e 67 64
e 67 57
e 67 55
e 67 44
e 67 23
e 67 1
e 68 128
e 68 127
e 68 126
e 68 123
e 68 115
e 68 113
e 68 110
e 68 107
e 68 100
e 68 99
e 68 94
e 68 92
e 68 91
e 68 88
e 68 83
e 68 76
e 68 75
e 68 73
e 68 69
e 68 66
e 68 62
e 68 52
e 68 45
e 68 43
e 68 28
e 68 27
e 68 20
e 68 8
e 68 7
e 68 2
e 69 126
e 69 123
e 69 118
e 69 116
e 69 115
e 69 113
e 69 107
e 69 99
e 69 94
e 69 93
e 69 92
e 69 91
e 69 86
e 69 83
e 69 82
e 69 75
e 69 68
e 69 66
e 69 62
e 69 61
e 69 58
e 69 53
e 69 52
e 69 46
e 69 45
e 69 41
e 69 38
e 69 36
e 69 30
e 69 28
e 69 25
e 69 24
e 69 20
e 69 10
e 69 2
e 70 122
e 70 96
e 70 89
e 70 71
e 70 67
e 70 64
e 70 60
e 70 57
e 70 55
e 70 23
e 70 13
e 70 6
e 71 127
e 71 122
e 71 111
e 71 107
e 71 106
e 71 96
e 71 95
e 71 89
e 71 84
e 71 75
e 71 70
e 71 64
e 71 60
e 71 56
e 71 23
e 71 13
e 71 6
e 72 120
e 72 119
e 72 103
e 72 98
e 72 57
e 72 55
e 72 44
e 72 31
e 72 1
e 73 128
e 73 125
e 73 114
e 73 105
e 73 101
e 73 100
e 73 97
e 73 91
e 73 88
e 73 78
e 73 76
e 73 74
e 73 68
e 73 62
e 73 43
e 73 39
e 73 28
e 73 27
e 73 19
e 73 14
e 73 8
e 73 7
e 74 128
e 74 125
e 74 117
e 74 114
e 74 110
e 74 109
e 74 108
e 74 105
e 74 102
e 74 101
e 74 100
e 74 97
e 74 90
e 74 80
e 74 79
e 74 78
e 74 73
e 74 65
e 74 43
e 74 39
e 74 33
e 74 19
e 74 16
e 74 8
e 75 127
e 75 126
e 75 123
e 75 116
e 75 115
e 75 113
e 75 111
e 75 107
e 75 96
e 75 93
e 75 92
e 75 84
e 75 71
e 75 69
e 75 68
e 75 66
e 75 53
e 75 52
e 75 45
e 75 41
e 75 38
e 75 30
e 75 28
e 75 24
e 75 20
e 75 13
e 75 10
e 75 2
e 76 128
e 76 126
e 76 123
e 76 122
e 76 115
e 76 114
e 76 110
e 76 108
e 76 107
e 76 100
e 76 99
e 76 92
e 76 91
e 76 90
e 76 88
e 76 79
e 76 73
e 76 68
e 76 66
e 76 64
e 76 62
e 76 52
e 76 45
e 76 43
e 76 28
e 76 27
e 76 8
e 77 124
e 77 54
e 77 40
e 77 29
e 77 26
e 77 21
e 77 18
e 77 15
e 77 4
e 78 128
e 78 125
e 78 117
e 78 114
e 78 110
e 78 105
e 78 101
e 78 100
e 78 97
e 78 79
e 78 74
e 78 73
e 78 65
e 78 51
e 78 43
e 78 39
e 78 19
e 78 8
e 79 128
e 79 125
e 79 117
e 79 114
e 79 110
e 79 109
e 79 108
e 79 105
e 79 102
e 79 100
e 79 98
e 79 97
e 79 90
e 79 88
e 79 80
e 79 78
e 79 76
e 79 74
e 79 43
e 79 39
e 79 27
e 79 1
e 80 117
e 80 110
e 80 109
e 80 108
e 80 105
e 80 103
e 80 102
e 80 98
e 80 90
e 80 79
e 80 74
e 80 55
e 80 44
e 80 33
e 80 31
e 80 27
e 80 12
e 80 1
e 81 85
e 81 63
e 81 59
e 81 50
e 81 49
e 81 42
e 81 17
e 81 11
e 81 3
e 82 126
e 82 118
e 82 116
e 82 115
e 82 113
e 82 94
e 82 93
e 82 86
e 82 83
e 82 69
e 82 66
e 82 61
e 82 58
e 82 53
e 82 46
e 82 45
e 82 41
e 82 38
e 82 36
e 82 30
e 82 25
e 82 24
e 82 22
e 82 20
e 82 10
e 82 2
e 83 126
e 83 123
e 83 118
e 83 116
e 83 115
e 83 113
e 83 99
e 83 94
e 83 92
e 83 91
e 83 86
e 83 82
e 83 69
e 83 68
e 83 66
e 83 62
e 83 61
e 83 58
e 83 53
e 83 52
e 83 46
e 83 45
e 83 38
e 83 30
e 83 28
e 83 25
e 83 24
e 83 22
e 83 20
e 83 7
e 84 127
e 84 113
e 84 111
e 84 107
e 84 96
e 84 93
e 84 89
e 84 75
e 84 71
e 84 60
e 84 41
e 84 30
e 84 24
e 84 13
e 84 10
e 84 6
e 84 2
e 85 81
e 85 63
e 85 59
e 85 50
e 85 42
e 85 17
e 85 11
e 86 118
e 86 116
e 86 113
e 86 94
e 86 93
e 86 83
e 86 82
e 86 69
e 86 61
e 86 58
e 86 53
e 86 46
e 86 41
e 86 38
e 86 36
e 86 30
e 86 25
e 86 24
e 86 22
e 86 20
e 86 10
e 87 48
e 87 35
e 87 33
e 87 32
e 87 16
e 87 5
e 87 3
e 88 128
e 88 126
e 88 123
e 88 115
e 88 114
e 88 110
e 88 108
e 88 107
e 88 100
e 88 99
e 88 92
e 88 91
e 88 90
e 88 79
e 88 76
e 88 73
e 88 68
e 88 66
e 88 64
e 88 62
e 88 52
e 88 45
e 88 43
e 88 28
e 88 27
e 88 19
e 88 8
e 88 7
e 89 127
e 89 122
e 89 106
e 89 96
e 89 95
e 89 84
e 89 71
e 89 70
e 89 64
e 89 60
e 89 56
e 89 23
e 89 13
e 89 6
e 90 128
e 90 117
e 90 114
e 90 110
e 90 109
e 90 108
e 90 105
e 90 102
e 90 98
e 90 97
e 90 88
e 90 80
e 90 79
e 90 76
e 90 74
e 90 39
e 90 33
e 90 31
e 90 27
e 90 1
e 91 128
e 91 126
e 91 123
e 91 115
e 91 114
e 91 107
e 91 101
e 91 100
e 91 99
e 91 92
e 91 88
e 91 83
e 91 76
e 91 73
e 91 69
e 91 68
e 91 66
e 91 62
e 91 52
e 91 45
e 91 43
e 91 39
e 91 28
e 91 27
e 91 19
e 91 14
e 91 8
e 91 7
e 92 128
e 92 127
e 92 126
e 92 123
e 92 115
e 92 113
e 92 107
e 92 100
e 92 99
e 92 94
e 92 91
e 92 88
e 92 83
e 92 76
e 92 75
e 92 69
e 92 68
e 92 66
e 92 62
e 92 52
e 92 45
e 92 43
e 92 30
e 92 28
e 92 27
e 92 20
e 92 10
e 92 8
e 92 7
e 92 2
e 93 127
e 93 126
e 93 123
e 93 116
e 93 115
e 93 113
e 93 111
e 93 107
e 93 96
e 93 94
e 93 86
e 93 84
e 93 82
e 93 75
e 93 69
e 93 66
e 93 61
e 93 58
e 93 53
e 93 45
e 93 41
e 93 38
e 93 30
e 93 25
e 93 24
e 93 20
e 93 13
e 93 10
e 93 2
e 94 126
e 94 123
e 94 118
e 94 116
e 94 115
e 94 113
e 94 99
e 94 93
e 94 92
e 94 86
e 94 83
e 94 82
e 94 69
e 94 68
e 94 66
e 94 61
e 94 58
e 94 53
e 94 52
e 94 46
e 94 45
e 94 41
e 94 38
e 94 36
e 94 30
e 94 28
e 94 25
e 94 24
e 94 22
e 94 20
e 94 10
e 94 2
e 95 106
e 95 89
e 95 71
e 95 60
e 95 56
e 95 23
e 95 13
e 95 6
e 96 127
e 96 122
e 96 113
e 96 111
e 96 107
e 96 93
e 96 89
e 96 84
e 96 75
e 96 71
e 96 70
e 96 60
e 96 41
e 96 23
e 96 13
e 96 10
e 96 6
e 96 2
e 97 125
e 97 117
e 97 114
e 97 105
e 97 102
e 97 101
e 97 100
e 97 90
e 97 79
e 97 78
e 97 74
e 97 73
e 97 65
e 97 51
e 97 39
e 97 19
e 98 120
e 98 119
e 98 110
e 98 109
e 98 108
e 98 103
e 98 102
e 98 90
e 98 80
e 98 79
e 98 72
e 98 67
e 98 57
e 98 55
e 98 44
e 98 31
e 98 1
e 99 128
e 99 126
e 99 123
e 99 115
e 99 107
e 99 100
e 99 94
e 99 92
e 99 91
e 99 88
e 99 83
e 99 76
e 99 69
e 99 68
e 99 66
e 99 62
e 99 52
e 99 45
e 99 43
e 99 28
e 99 14
e 99 8
e 99 7
e 100 128
e 100 125
e 100 117
e 100 114
e 100 105
e 100 101
e 100 99
e 100 97
e 100 92
e 100 91
e 100 88
e 100 79
e 100 78
e 100 76
e 100 74
e 100 73
e 100 68
e 100 62
e 100 52
e 100 43
e 100 39
e 100 28
e 100 27
e 100 19
e 100 14
e 100 8
e 101 128
e 101 125
e 101 114
e 101 105
e 101 100
e 101 97
e 101 91
e 101 78
e 101 74
e 101 73
e 101 65
e 101 62
e 101 43
e 101 39
e 101 19
e 101 14
e 101 8
e 101 7
e 102 128
e 102 117
e 102 114
e 102 110
e 102 109
e 102 108
e 102 105
e 102 98
e 102 97
e 102 90
e 102 80
e 102 79
e 102 74
e 102 33
e 102 31
e 102 27
e 102 16
e 102 12
e 102 1
e 103 120
e 103 119
e 103 109
e 103 108
e 103 98
e 103 80
e 103 72
e 103 67
e 103 64
e 103 57
e 103 55
e 103 44
e 103 31
e 103 1
e 104 124
e 104 59
e 104 49
e 104 40
e 104 26
e 104 21
e 104 18
e 104 9
e 104 4
e 105 125
e 105 117
e 105 114
e 105 110
e 105 102
e 105 101
e 105 100
e 105 97
e 105 90
e 105 80
e 105 79
e 105 78
e 105 74
e 105 73
e 105 65
e 105 51
e 105 43
e 105 39
e 105 19
e 106 95
e 106 89
e 106 71
e 106 60
e 106 56
e 106 23
e 106 13
e 106 6
e 107 127
e 107 126
e 107 123
e 107 115
e 107 113
e 107 111
e 107 99
e 107 96
e 107 93
e 107 92
e 107 91
e 107 88
e 107 84
e 107 76
e 107 75
e 107 71
e 107 69
e 107 68
e 107 66
e 107 62
e 107 52
e 107 45
e 107 28
e 107 10
e 107 2
e 108 128
e 108 114
e 108 110
e 108 109
e 108 103
e 108 102
e 108 98
e 108 90
e 108 88
e 108 80
e 108 79
e 108 76
e 108 74
e 108 67
e 108 64
e 108 57
e 108 55
e 108 31
e 108 27
e 108 1
e 109 110
e 109 108
e 109 103
e 109 102
e 109 98
e 109 90
e 109 80
e 109 79
e 109 74
e 109 57
e 109 55
e 109 44
e 109 31
e 109 27
e 109 1
e 110 128
e 110 117
e 110 114
e 110 109
e 110 108
e 110 105
e 110 102
e 110 98
e 110 90
e 110 88
e 110 80
e 110 79
e 110 78
e 110 76
e 110 74
e 110 68
e 110 64
e 110 55
e 110 43
e 110 39
e 110 27
e 110 8
e 110 1
e 111 127
e 111 126
e 111 123
e 111 116
e 111 113
e 111 107
e 111 96
e 111 93
e 111 84
e 111 75
e 111 71
e 111 53
e 111 45
e 111 41
e 111 38
e 111 30
e 111 24
e 111 20
e 111 13
e 111 10
e 111 6
e 111 2
e 112 54
e 112 47
e 112 29
e 113 127
e 113 126
e 113 123
e 113 118
e 113 116
e 113 115
e 113 111
e 113 107
e 113 96
e 113 94
e 113 93
e 113 92
e 113 86
e 113 84
e 113 83
e 113 82
e 113 75
e 113 69
e 113 68
e 113 66
e 113 61
e 113 58
e 113 53
e 113 52
e 113 46
e 113 45
e 113 41
e 113 38
e 113 36
e 113 30
e 113 28
e 113 25
e 113 24
e 113 20
e 113 10
e 113 2
e 114 128
e 114 125
e 114 117
e 114 110
e 114 108
e 114 105
e 114 102
e 114 101
e 114 100
e 114 97
e 114 91
e 114 90
e 114 88
e 114 79
e 114 78
e 114 76
e 114 74
e 114 73
e 114 65
e 114 62
e 114 43
e 114 39
e 114 27
e 114 19
e 114 8
e 115 127
e 115 126
e 115 123
e 115 116
e 115 113
e 115 107
e 115 99
e 115 94
e 115 93
e 115 92
e 115 91
e 115 88
e 115 83
e 115 82
e 115 76
e 115 75
e 115 69
e 115 68
e 115 66
e 115 62
e 115 58
e 115 53
e 115 52
e 115 46
e 115 45
e 115 43
e 115 41
e 115 38
e 115 30
e 115 28
e 115 25
e 115 24
e 115 20
e 115 10
e 115 8
e 115 7
e 115 2
e 116 126
e 116 123
e 116 118
e 116 115
e 116 113
e 116 111
e 116 94
e 116 93
e 116 86
e 116 83
e 116 82
e 116 75
e 116 69
e 116 66
e 116 61
e 116 58
e 116 53
e 116 52
e 116 46
e 116 45
e 116 41
e 116 38
e 116 36
e 116 30
e 116 25
e 116 24
e 116 22
e 116 20
e 116 10
e 116 2
e 117 125
e 117 114
e 117 110
e 117 105
e 117 102
e 117 100
e 117 97
e 117 90
e 117 80
e 117 79
e 117 78
e 117 74
e 117 65
e 117 43
e 117 39
e 117 33
e 117 16
e 118 116
e 118 113
e 118 94
e 118 86
e 118 83
e 118 82
e 118 69
e 118 61
e 118 58
e 118 53
e 118 46
e 118 41
e 118 38
e 118 36
e 118 30
e 118 25
e 118 24
e 118 22
e 118 20
e 118 10
e 119 120
e 119 103
e 119 98
e 119 72
e 119 57
e 119 55
e 119 44
e 119 31
e 120 119
e 120 103
e 120 98
e 120 72
e 120 57
e 120 55
e 120 47
e 120 44
e 120 31
e 120 1
e 121 65
e 121 51
e 121 34
e 122 96
e 122 89
e 122 76
e 122 71
e 122 70
e 122 67
e 122 64
e 122 57
e 122 55
e 122 27
e 122 23
e 122 13
e 122 6
e 123 128
e 123 127
e 123 126
e 123 116
e 123 115
e 123 113
e 123 111
e 123 107
e 123 99
e 123 94
e 123 93
e 123 92
e 123 91
e 123 88
e 123 83
e 123 76
e 123 75
e 123 69
e 123 68
e 123 66
e 123 62
e 123 58
e 123 53
e 123 52
e 123 46
e 123 45
e 123 41
e 123 38
e 123 30
e 123 28
e 123 25
e 123 24
e 123 20
e 123 10
e 123 8
e 123 7
e 123 2
e 124 104
e 124 77
e 124 49
e 124 40
e 124 29
e 124 26
e 124 21
e 124 18
e 124 15
e 124 9
e 124 4
e 125 117
e 125 114
e 125 105
e 125 101
e 125 100
e 125 97
e 125 79
e 125 78
e 125 74
e 125 73
e 125 65
e 125 51
e 125 43
e 125 39
e 125 19
e 125 8
e 126 127
e 126 123
e 126 116
e 126 115
e 126 113
e 126 111
e 126 107
e 126 99
e 126 94
e 126 93
e 126 92
e 126 91
e 126 88
e 126 83
e 126 82
e 126 76
e 126 75
e 126 69
e 126 68
e 126 66
e 126 62
e 126 61
e 126 58
e 126 53
e 126 52
e 126 46
e 126 45
e 126 41
e 126 38
e 126 30
e 126 28
e 126 25
e 126 24
e 126 20
e 126 10
e 126 8
e 126 7
e 126 2
e 127 126
e 127 123
e 127 115
e 127 113
e 127 111
e 127 107
e 127 96
e 127 93
e 127 92
e 127 89
e 127 84
e 127 75
e 127 71
e 127 68
e 127 45
e 127 41
e 127 38
e 127 30
e 127 24
e 127 20
e 127 13
e 127 10
e 127 6
e 127 2
e 128 123
e 128 114
e 128 110
e 128 108
e 128 102
e 128 101
e 128 100
e 128 99
e 128 92
e 128 91
e 128 90
e 128 88
e 128 79
e 128 78
e 128 76
e 128 74
e 128 73
e 128 68
e 128 64
e 128 62
e 128 52
e 128 43
e 128 39
e 128 28
e 128 27
e 128 19
e 128 8
e 128 7
